
  32    4
  10   10   10   10

   0   0   0   0   0  10 2 3 14 25 26 27 28 29 30 31 
  10   1   1   1   0   2 24 4 
  10   4   3   0   1   1 4 
   8   0   5   7   5   2 23 5 
   8   0   5   8   3   4 22 21 20 6 
   2   5   8   0   1   2 19 7 
   6   3   3   0   5   2 18 8 
   1   0   6   6   3   3 17 16 9 
   7   5   3   0   2   1 10 
   2   3   2   0   5   1 11 
   9   3   3   2   0   1 12 
   3   4   0   2   5   1 13 
   3   0   5   7   6   1 15 
   3   4   4   7   0   1 24 
   1   6   2   5   0   1 32
   8   7   0   1   8   1 32
   3   0   7   4   6   1 32
   9   3   3   0   2   1 32
   2   5   4   2   0   1 32
  10   4   5   2   0   1 32
   6   5   4   3   0   1 32
  10   0   4   3   4   1 32
   8   5   5   0   6   1 32
   8   0   3   6   3   1 32
  10   4   0   5   5   1 32
   1   2   0   3   2   1 32
   8   4   0   3   3   1 32
   2   4   3   3   0   1 32
   9   1   2   0   6   1 32
   3   6   5   2   0   1 32
  10   0   5   6   3   1 32
   0   0   0   0   0   0 
